p cnf 187 399
-1 12 90 -2 10 171 -5 -107 -172 -176 -187 0 
-3 47 111 163 -4 53 55 122 149 151 172 -176 -187 0 
-5 107 173 0 
-6 74 173 0 
-7 123 135 136 137 138 140 141 142 143 144 145 146 166 167 -4 53 55 122 149 151 172 -176 -187 0 
-8 35 41 95 171 -5 -107 -172 -176 -187 0 
-8 35 41 95 174 -172 -176 -187 -5 -107 0 
-1 12 90 -9 -10 2 -11 174 -172 -176 -187 -5 -107 0 
-12 1 90 171 -5 -107 -172 -176 -187 0 
-13 59 175 -22 -78 -172 -176 -187 0 
-14 103 171 -5 -107 -172 -176 -187 0 
-5 107 176 -172 -187 0 
-15 177 -178 -186 0 
-16 176 -172 -187 0 
-15 176 -172 -187 0 
-17 27 50 54 56 80 86 147 156 172 -176 -187 0 
-18 171 -5 -107 -172 -176 -187 0 
-19 -20 171 -5 -107 -172 -176 -187 0 
-6 74 171 -5 -107 -172 -176 -187 0 
-21 171 -5 -107 -172 -176 -187 0 
-22 78 173 0 
-23 68 171 -5 -107 -172 -176 -187 0 
-22 78 171 -5 -107 -172 -176 -187 0 
-24 25 34 139 171 -5 -107 -172 -176 -187 0 
-1 12 90 -9 -2 10 171 -5 -107 -172 -176 -187 0 
-25 24 34 139 171 -5 -107 -172 -176 -187 0 
-26 -27 17 50 54 56 80 86 147 156 -28 172 -176 -187 0 
-9 178 -177 -186 0 
-29 172 -176 -187 0 
-30 -31 -12 1 90 179 -33 -152 -172 -176 -187 0 
-30 171 -5 -107 -172 -176 -187 0 
-15 -5 107 176 -172 -187 0 
-32 46 75 106 129 155 160 -33 152 176 -172 -187 0 
-32 46 75 106 129 155 160 176 -172 -187 0 
-34 24 25 139 176 -172 -187 0 
-35 8 41 95 171 -5 -107 -172 -176 -187 0 
-1 12 90 171 -5 -107 -172 -176 -187 0 
-12 1 90 -10 2 -36 -37 171 -5 -107 -172 -176 -187 0 
-19 -35 8 41 95 171 -5 -107 -172 -176 -187 0 
-20 171 -5 -107 -172 -176 -187 0 
-2 10 -9 171 -5 -107 -172 -176 -187 0 
-38 -39 73 -40 42 112 -31 -41 8 35 95 180 -16 -172 -176 -187 0 
-35 8 41 95 177 -178 -186 0 
-42 40 112 172 -176 -187 0 
-43 -44 48 65 172 -176 -187 0 
-17 27 50 54 56 80 86 147 156 -45 172 -176 -187 0 
-46 32 75 106 129 155 160 -12 1 90 172 -176 -187 0 
-47 3 111 163 -31 -12 1 90 172 -176 -187 0 
-48 44 65 -49 -12 1 90 172 -176 -187 0 
-50 17 27 54 56 80 86 147 156 175 -22 -78 -172 -176 -187 0 
-50 17 27 54 56 80 86 147 156 172 -176 -187 0 
-47 3 111 163 171 -5 -107 -172 -176 -187 0 
-51 -52 63 79 172 -176 -187 0 
-53 4 55 122 149 151 172 -176 -187 0 
-28 -54 17 27 50 56 80 86 147 156 -55 4 53 122 149 151 172 -176 -187 0 
-6 74 -46 32 75 106 129 155 160 -55 4 53 122 149 151 172 -176 -187 0 
-56 17 27 50 54 80 86 147 156 172 -176 -187 0 
-44 48 65 -57 62 97 128 159 -31 172 -176 -187 0 
-58 171 -5 -107 -172 -176 -187 0 
-59 13 172 -176 -187 0 
-60 172 -176 -187 0 
-61 132 172 -176 -187 0 
-62 57 97 128 159 -63 52 79 172 -176 -187 0 
-64 104 172 -176 -187 0 
-65 44 48 176 -172 -187 0 
-66 171 -5 -107 -172 -176 -187 0 
-44 48 65 171 -5 -107 -172 -176 -187 0 
-28 171 -5 -107 -172 -176 -187 0 
-67 -43 171 -5 -107 -172 -176 -187 0 
-68 23 171 -5 -107 -172 -176 -187 0 
-25 24 34 139 172 -176 -187 0 
-31 172 -176 -187 0 
-42 40 112 -54 17 27 50 56 80 86 147 156 -31 172 -176 -187 0 
-69 -70 -71 172 -176 -187 0 
-72 110 134 172 -176 -187 0 
-47 3 111 163 172 -176 -187 0 
-73 39 181 -76 -172 -176 -187 0 
-74 6 182 -120 -126 -150 -172 -176 -187 0 
-44 48 65 -41 8 35 95 179 -33 -152 -172 -176 -187 0 
-75 32 46 106 129 155 160 183 -57 -62 -97 -128 -159 -172 -176 -187 0 
-50 17 27 54 56 80 86 147 156 -12 1 90 184 -121 -148 -172 -176 -187 0 
-76 -77 172 -176 -187 0 
-78 22 -79 52 63 172 -176 -187 0 
-80 17 27 50 54 56 86 147 156 172 -176 -187 0 
-28 172 -176 -187 0 
-81 172 -176 -187 0 
-82 161 176 -172 -187 0 
-9 176 -172 -187 0 
-47 3 111 163 -28 172 -176 -187 0 
-83 -12 1 90 172 -176 -187 0 
-84 172 -176 -187 0 
-85 88 114 118 131 172 -176 -187 0 
-86 17 27 50 54 56 80 147 156 -87 172 -176 -187 0 
-88 85 114 118 131 -46 32 75 106 129 155 160 172 -176 -187 0 
-31 -12 1 90 172 -176 -187 0 
-42 40 112 -35 8 41 95 172 -176 -187 0 
-89 125 -12 1 90 172 -176 -187 0 
-90 1 12 171 -5 -107 -172 -176 -187 0 
-91 94 133 171 -5 -107 -172 -176 -187 0 
-1 12 90 -11 171 -5 -107 -172 -176 -187 0 
-92 -93 162 -94 91 133 171 -5 -107 -172 -176 -187 0 
-12 1 90 -11 171 -5 -107 -172 -176 -187 0 
-95 8 35 41 171 -5 -107 -172 -176 -187 0 
-67 -38 -96 -25 24 34 139 171 -5 -107 -172 -176 -187 0 
-12 1 90 -20 171 -5 -107 -172 -176 -187 0 
-97 57 62 128 159 -9 185 -44 -48 -65 -172 -176 -187 0 
-19 171 -5 -107 -172 -176 -187 0 
-57 62 97 128 159 -47 3 111 163 -98 -99 153 180 -16 -172 -176 -187 0 
-100 171 -5 -107 -172 -176 -187 0 
-101 176 -172 -187 0 
-100 178 -177 -186 0 
-102 186 -177 -178 0 
-103 14 171 -5 -107 -172 -176 -187 0 
-104 64 178 -177 -186 0 
-105 178 -177 -186 0 
-106 32 46 75 129 155 160 178 -177 -186 0 
-107 5 187 -172 -176 0 
-108 109 -41 8 35 95 172 -176 -187 0 
-109 108 -12 1 90 172 -176 -187 0 
-110 72 134 -83 172 -176 -187 0 
-46 32 75 106 129 155 160 -31 -12 1 90 172 -176 -187 0 
-111 3 47 163 172 -176 -187 0 
-25 24 34 139 -112 40 42 -29 172 -176 -187 0 
-113 171 -5 -107 -172 -176 -187 0 
-114 85 88 118 131 -57 62 97 128 159 172 -176 -187 0 
-115 171 -5 -107 -172 -176 -187 0 
-116 171 -5 -107 -172 -176 -187 0 
-117 171 -5 -107 -172 -176 -187 0 
-37 171 -5 -107 -172 -176 -187 0 
-118 85 88 114 131 -119 171 -5 -107 -172 -176 -187 0 
-120 126 150 -121 148 -1 12 90 171 -5 -107 -172 -176 -187 0 
-122 4 53 55 149 151 172 -176 -187 0 
-41 8 35 95 172 -176 -187 0 
-1 12 90 -9 -11 171 -5 -107 -172 -176 -187 0 
-16 173 0 
-91 94 133 -12 1 90 171 -5 -107 -172 -176 -187 0 
-123 7 135 136 137 138 140 141 142 143 144 145 146 166 167 -31 172 -176 -187 0 
-76 -48 44 65 -49 172 -176 -187 0 
-124 130 -125 89 -126 120 150 185 -44 -48 -65 -172 -176 -187 0 
-127 168 171 -5 -107 -172 -176 -187 0 
-128 57 62 97 159 171 -5 -107 -172 -176 -187 0 
-129 32 46 75 106 155 160 -9 176 -172 -187 0 
-130 124 -26 -131 85 88 114 118 -132 61 175 -22 -78 -172 -176 -187 0 
-91 94 133 -1 12 90 171 -5 -107 -172 -176 -187 0 
-110 72 134 173 0 
-9 -1 12 90 -2 10 171 -5 -107 -172 -176 -187 0 
-1 12 90 -91 94 133 171 -5 -107 -172 -176 -187 0 
-35 8 41 95 171 -5 -107 -172 -176 -187 0 
-133 91 94 -12 1 90 171 -5 -107 -172 -176 -187 0 
-12 1 90 -91 94 133 171 -5 -107 -172 -176 -187 0 
-1 12 90 -19 171 -5 -107 -172 -176 -187 0 
-134 72 110 173 0 
-5 107 178 -177 -186 0 
-135 7 123 136 137 138 140 141 142 143 144 145 146 166 167 173 0 
-136 7 123 135 137 138 140 141 142 143 144 145 146 166 167 173 0 
-137 7 123 135 136 138 140 141 142 143 144 145 146 166 167 173 0 
-138 7 123 135 136 137 140 141 142 143 144 145 146 166 167 173 0 
-139 24 25 34 173 0 
-23 68 173 0 
-24 25 34 139 173 0 
-140 7 123 135 136 137 138 141 142 143 144 145 146 166 167 173 0 
-25 24 34 139 173 0 
-141 7 123 135 136 137 138 140 142 143 144 145 146 166 167 173 0 
-142 7 123 135 136 137 138 140 141 143 144 145 146 166 167 173 0 
-143 7 123 135 136 137 138 140 141 142 144 145 146 166 167 173 0 
-144 7 123 135 136 137 138 140 141 142 143 145 146 166 167 173 0 
-145 7 123 135 136 137 138 140 141 142 143 144 146 166 167 173 0 
-146 7 123 135 136 137 138 140 141 142 143 144 145 166 167 173 0 
-9 -1 12 90 -10 2 -11 171 -5 -107 -172 -176 -187 0 
-66 -15 171 -5 -107 -172 -176 -187 0 
-147 17 27 50 54 56 80 86 156 176 -172 -187 0 
-46 32 75 106 129 155 160 172 -176 -187 0 
-148 121 172 -176 -187 0 
-149 4 53 55 122 151 171 -5 -107 -172 -176 -187 0 
-150 120 126 172 -176 -187 0 
-151 4 53 55 122 149 172 -176 -187 0 
-152 33 176 -172 -187 0 
-69 172 -176 -187 0 
-153 99 172 -176 -187 0 
-42 40 112 -12 1 90 172 -176 -187 0 
-154 176 -172 -187 0 
-44 48 65 -42 40 112 -47 3 111 163 -31 172 -176 -187 0 
-155 32 46 75 106 129 160 172 -176 -187 0 
-156 17 27 50 54 56 80 86 147 172 -176 -187 0 
-72 110 134 -4 53 55 122 149 151 172 -176 -187 0 
-27 17 50 54 56 80 86 147 156 172 -176 -187 0 
-96 171 -5 -107 -172 -176 -187 0 
-95 8 35 41 171 -5 -107 -172 -176 -187 0 
-1 12 90 -11 174 -172 -176 -187 -5 -107 0 
-157 -2 10 171 -5 -107 -172 -176 -187 0 
-92 -93 162 -12 1 90 171 -5 -107 -172 -176 -187 0 
-158 173 0 
-6 74 -159 57 62 97 128 -28 172 -176 -187 0 
-47 3 111 163 -28 -90 1 12 172 -176 -187 0 
-4 53 55 122 149 151 172 -176 -187 0 
-160 32 46 75 106 129 155 172 -176 -187 0 
-161 82 -16 -12 1 90 171 -5 -107 -172 -176 -187 0 
-110 72 134 -162 93 171 -5 -107 -172 -176 -187 0 
-82 161 171 -5 -107 -172 -176 -187 0 
-23 68 -163 3 47 111 171 -5 -107 -172 -176 -187 0 
-164 172 -176 -187 0 
-5 107 177 -178 -186 0 
-38 -165 172 -176 -187 0 
-47 3 111 163 -4 53 55 122 149 151 172 -176 -187 0 
-166 7 123 135 136 137 138 140 141 142 143 144 145 146 167 -42 40 112 172 -176 -187 0 
-167 7 123 135 136 137 138 140 141 142 143 144 145 146 166 172 -176 -187 0 
-168 127 172 -176 -187 0 
-33 152 176 -172 -187 0 
-128 57 62 97 159 176 -172 -187 0 
-69 -169 176 -172 -187 0 
-39 73 -169 176 -172 -187 0 
-170 176 -172 -187 0 
44 138 148 0 
32 122 136 0 
118 -168 -170 0 
-88 -168 171 0 
26 -32 45 0 
-31 -85 177 0 
35 69 123 0 
88 99 -120 0 
47 -59 162 0 
-52 115 -158 0 
-48 96 -158 0 
93 103 -167 0 
-24 -36 -126 0 
135 -161 -180 0 
53 70 -167 0 
-71 126 -169 0 
-9 -120 -168 0 
-13 101 110 0 
-76 -85 -141 0 
-81 -168 -175 0 
65 126 169 0 
2 -84 -166 0 
-41 108 -173 0 
71 -103 187 0 
109 112 114 0 
8 -17 -152 0 
84 -108 116 0 
-21 -83 -103 0 
84 121 -143 0 
106 119 125 0 
75 121 182 0 
3 -87 124 0 
21 -51 -52 0 
19 -49 156 0 
114 -135 158 0 
31 -37 -180 0 
-4 6 165 0 
-7 -34 113 0 
31 32 111 0 
-75 -106 184 0 
46 -72 82 0 
1 46 155 0 
33 37 -179 0 
-133 148 156 0 
-45 -53 -79 0 
18 96 108 0 
80 85 -97 0 
7 40 -185 0 
35 87 97 0 
-42 -99 112 0 
21 103 -119 0 
26 -51 -130 0 
56 57 -97 0 
-69 132 -164 0 
-37 51 178 0 
-89 115 -170 0 
-71 144 -151 0 
64 150 155 0 
-29 38 91 0 
59 -136 170 0 
-44 68 103 0 
-29 -47 -151 0 
-14 59 -86 0 
-24 -91 -146 0 
15 33 68 0 
65 98 172 0 
-3 -71 -163 0 
-28 -139 171 0 
-63 -80 185 0 
-35 -86 -97 0 
78 -90 113 0 
-111 142 184 0 
23 39 -178 0 
-35 67 164 0 
59 83 141 0 
-18 144 154 0 
-77 81 121 0 
10 -52 -94 0 
-2 -92 -155 0 
68 73 116 0 
142 168 -181 0 
85 109 -167 0 
34 -37 -147 0 
34 -139 -157 0 
-18 47 155 0 
53 -65 -99 0 
-15 106 166 0 
-3 -23 42 0 
-47 63 109 0 
115 165 171 0 
119 161 -177 0 
-13 -42 123 0 
-3 -14 179 0 
100 -164 -165 0 
-99 141 -171 0 
44 48 64 0 
40 124 130 0 
-82 124 -162 0 
-55 -71 -154 0 
65 -120 -172 0 
-5 53 171 0 
-71 -143 147 0 
-39 156 -176 0 
29 -136 -178 0 
117 -172 187 0 
-70 71 -133 0 
8 22 -111 0 
-30 31 -108 0 
111 -123 177 0 
123 130 183 0 
-139 -162 -163 0 
-114 131 -138 0 
36 -91 -149 0 
-52 -78 -138 0 
91 -158 -165 0 
-2 14 123 0 
21 42 154 0 
-31 -41 -70 0 
146 165 167 0 
18 -34 -63 0 
-80 90 175 0 
4 94 159 0 
-27 134 180 0 
-24 54 -162 0 
32 33 -47 0 
-80 126 -154 0 
-33 52 88 0 
-9 -65 -85 0 
71 73 133 0 
-13 -126 136 0 
66 98 -134 0 
48 -78 -105 0 
110 -130 143 0 
31 74 -124 0 
95 146 -159 0 
35 -67 -168 0 
-129 154 184 0 
17 -177 -183 0 
-76 -109 129 0 
35 -35 -118 0 
86 -146 168 0 
26 151 -173 0 
-134 -178 187 0 
5 43 89 0 
3 87 155 0 
38 -40 -52 0 
37 59 171 0 
85 -134 175 0 
35 -144 164 0 
108 -121 -162 0 
33 -34 171 0 
60 119 134 0 
-9 108 -147 0 
47 -50 81 0 
86 -105 -180 0 
-19 -90 -139 0 
63 66 109 0 
-2 86 100 0 
-17 -65 146 0 
-48 117 -125 0 
-151 161 171 0 
-16 110 124 0 
26 54 -139 0 
-15 -152 154 0 
113 -148 163 0 
-74 105 -176 0 
-29 72 85 0 
35 133 -142 0 
-94 104 170 0 
-27 -69 -162 0 
-147 168 170 0 
10 85 -137 0 
-6 124 -133 0 
-88 -124 -178 0 
-33 -133 150 0 
-71 -110 -140 0 
32 60 145 0 
-60 127 -160 0 
-22 71 81 0 
20 -111 172 0 
87 -95 -171 0 
65 87 143 0 
44 48 -80 0 
71 -107 -166 0 
26 -80 -104 0 
-25 37 -48 0 
47 49 -149 0 
